12
0 6 9 6 1 1 2 8 7 3 5 6 
6 0 3 5 3 5 8 8 2 8 1 7 
9 3 0 8 7 2 1 2 9 9 4 9 
6 5 8 0 8 4 7 6 2 4 5 9 
1 3 7 8 0 2 5 1 4 3 1 5 
1 5 2 4 2 0 3 8 8 9 7 4 
2 8 1 7 5 3 0 8 8 5 6 4 
8 8 2 6 1 8 8 0 7 9 1 3 
7 2 9 2 4 8 8 7 0 8 8 8 
3 8 9 4 3 9 5 9 8 0 4 1 
5 1 4 5 1 7 6 1 8 4 0 9 
6 7 9 9 5 4 4 3 8 1 9 0 
